
 $CONTRL SCFTYP=RHF MPLEVL=2 RUNTYP=Energy ICHARG=0
 COORD=UNIQUE MULT=1 MAXIT=200 ISPHER=1 $END
 $SYSTEM MWORDS=10 MEMDDI =1 $END
 $SCF DIRSCF=.TRUE. $END $CPHF CPHF=AO $END
 $STATPT NSTEP=100 HSSEND=.T. $END
 $BASIS  GBASIS=cc-pVDZ $END
 $GUESS  GUESS=HUCKEL $END
 $DATA
optg and freq
C1

$END
